(set-logic QF_LRA)
(declare-fun X0 () Real )
(declare-fun Y0 () Real )
(declare-fun X1 () Real )
(declare-fun Y1 () Real )
(declare-fun X2 () Real )
(declare-fun Y2 () Real )
(declare-fun X3 () Real )
(declare-fun Y3 () Real )
(declare-fun X4 () Real )
(declare-fun Y4 () Real )
(declare-fun X5 () Real )
(declare-fun Y5 () Real )
(declare-fun X6 () Real )
(declare-fun Y6 () Real )
(declare-fun X7 () Real )
(declare-fun Y7 () Real )
(declare-fun X8 () Real )
(declare-fun Y8 () Real )
(declare-fun Z () Real )
(assert ( and  
( or ( <= ( + X0 63 ) X1 )  ( <= ( + X1 7 ) X0 )  ( <= ( + Y0 77 ) Y1 )  ( <= ( + Y1 32 ) Y0 )  )
( or ( <= ( + X0 63 ) X2 )  ( <= ( + X2 23 ) X0 )  ( <= ( + Y0 77 ) Y2 )  ( <= ( + Y2 60 ) Y0 )  )
( or ( <= ( + X0 63 ) X3 )  ( <= ( + X3 70 ) X0 )  ( <= ( + Y0 77 ) Y3 )  ( <= ( + Y3 67 ) Y0 )  )
( or ( <= ( + X0 63 ) X4 )  ( <= ( + X4 87 ) X0 )  ( <= ( + Y0 77 ) Y4 )  ( <= ( + Y4 17 ) Y0 )  )
( or ( <= ( + X0 63 ) X5 )  ( <= ( + X5 4 ) X0 )  ( <= ( + Y0 77 ) Y5 )  ( <= ( + Y5 14 ) Y0 )  )
( or ( <= ( + X0 63 ) X6 )  ( <= ( + X6 73 ) X0 )  ( <= ( + Y0 77 ) Y6 )  ( <= ( + Y6 2 ) Y0 )  )
( or ( <= ( + X0 63 ) X7 )  ( <= ( + X7 67 ) X0 )  ( <= ( + Y0 77 ) Y7 )  ( <= ( + Y7 6 ) Y0 )  )
( or ( <= ( + X0 63 ) X8 )  ( <= ( + X8 26 ) X0 )  ( <= ( + Y0 77 ) Y8 )  ( <= ( + Y8 97 ) Y0 )  )
( or ( <= ( + X1 7 ) X2 )  ( <= ( + X2 23 ) X1 )  ( <= ( + Y1 32 ) Y2 )  ( <= ( + Y2 60 ) Y1 )  )
( or ( <= ( + X1 7 ) X3 )  ( <= ( + X3 70 ) X1 )  ( <= ( + Y1 32 ) Y3 )  ( <= ( + Y3 67 ) Y1 )  )
( or ( <= ( + X1 7 ) X4 )  ( <= ( + X4 87 ) X1 )  ( <= ( + Y1 32 ) Y4 )  ( <= ( + Y4 17 ) Y1 )  )
( or ( <= ( + X1 7 ) X5 )  ( <= ( + X5 4 ) X1 )  ( <= ( + Y1 32 ) Y5 )  ( <= ( + Y5 14 ) Y1 )  )
( or ( <= ( + X1 7 ) X6 )  ( <= ( + X6 73 ) X1 )  ( <= ( + Y1 32 ) Y6 )  ( <= ( + Y6 2 ) Y1 )  )
( or ( <= ( + X1 7 ) X7 )  ( <= ( + X7 67 ) X1 )  ( <= ( + Y1 32 ) Y7 )  ( <= ( + Y7 6 ) Y1 )  )
( or ( <= ( + X1 7 ) X8 )  ( <= ( + X8 26 ) X1 )  ( <= ( + Y1 32 ) Y8 )  ( <= ( + Y8 97 ) Y1 )  )
( or ( <= ( + X2 23 ) X3 )  ( <= ( + X3 70 ) X2 )  ( <= ( + Y2 60 ) Y3 )  ( <= ( + Y3 67 ) Y2 )  )
( or ( <= ( + X2 23 ) X4 )  ( <= ( + X4 87 ) X2 )  ( <= ( + Y2 60 ) Y4 )  ( <= ( + Y4 17 ) Y2 )  )
( or ( <= ( + X2 23 ) X5 )  ( <= ( + X5 4 ) X2 )  ( <= ( + Y2 60 ) Y5 )  ( <= ( + Y5 14 ) Y2 )  )
( or ( <= ( + X2 23 ) X6 )  ( <= ( + X6 73 ) X2 )  ( <= ( + Y2 60 ) Y6 )  ( <= ( + Y6 2 ) Y2 )  )
( or ( <= ( + X2 23 ) X7 )  ( <= ( + X7 67 ) X2 )  ( <= ( + Y2 60 ) Y7 )  ( <= ( + Y7 6 ) Y2 )  )
( or ( <= ( + X2 23 ) X8 )  ( <= ( + X8 26 ) X2 )  ( <= ( + Y2 60 ) Y8 )  ( <= ( + Y8 97 ) Y2 )  )
( or ( <= ( + X3 70 ) X4 )  ( <= ( + X4 87 ) X3 )  ( <= ( + Y3 67 ) Y4 )  ( <= ( + Y4 17 ) Y3 )  )
( or ( <= ( + X3 70 ) X5 )  ( <= ( + X5 4 ) X3 )  ( <= ( + Y3 67 ) Y5 )  ( <= ( + Y5 14 ) Y3 )  )
( or ( <= ( + X3 70 ) X6 )  ( <= ( + X6 73 ) X3 )  ( <= ( + Y3 67 ) Y6 )  ( <= ( + Y6 2 ) Y3 )  )
( or ( <= ( + X3 70 ) X7 )  ( <= ( + X7 67 ) X3 )  ( <= ( + Y3 67 ) Y7 )  ( <= ( + Y7 6 ) Y3 )  )
( or ( <= ( + X3 70 ) X8 )  ( <= ( + X8 26 ) X3 )  ( <= ( + Y3 67 ) Y8 )  ( <= ( + Y8 97 ) Y3 )  )
( or ( <= ( + X4 87 ) X5 )  ( <= ( + X5 4 ) X4 )  ( <= ( + Y4 17 ) Y5 )  ( <= ( + Y5 14 ) Y4 )  )
( or ( <= ( + X4 87 ) X6 )  ( <= ( + X6 73 ) X4 )  ( <= ( + Y4 17 ) Y6 )  ( <= ( + Y6 2 ) Y4 )  )
( or ( <= ( + X4 87 ) X7 )  ( <= ( + X7 67 ) X4 )  ( <= ( + Y4 17 ) Y7 )  ( <= ( + Y7 6 ) Y4 )  )
( or ( <= ( + X4 87 ) X8 )  ( <= ( + X8 26 ) X4 )  ( <= ( + Y4 17 ) Y8 )  ( <= ( + Y8 97 ) Y4 )  )
( or ( <= ( + X5 4 ) X6 )  ( <= ( + X6 73 ) X5 )  ( <= ( + Y5 14 ) Y6 )  ( <= ( + Y6 2 ) Y5 )  )
( or ( <= ( + X5 4 ) X7 )  ( <= ( + X7 67 ) X5 )  ( <= ( + Y5 14 ) Y7 )  ( <= ( + Y7 6 ) Y5 )  )
( or ( <= ( + X5 4 ) X8 )  ( <= ( + X8 26 ) X5 )  ( <= ( + Y5 14 ) Y8 )  ( <= ( + Y8 97 ) Y5 )  )
( or ( <= ( + X6 73 ) X7 )  ( <= ( + X7 67 ) X6 )  ( <= ( + Y6 2 ) Y7 )  ( <= ( + Y7 6 ) Y6 )  )
( or ( <= ( + X6 73 ) X8 )  ( <= ( + X8 26 ) X6 )  ( <= ( + Y6 2 ) Y8 )  ( <= ( + Y8 97 ) Y6 )  )
( or ( <= ( + X7 67 ) X8 )  ( <= ( + X8 26 ) X7 )  ( <= ( + Y7 6 ) Y8 )  ( <= ( + Y8 97 ) Y7 )  )
( >= X0 0)
( <= ( + X0 63) Z)
( >= Y0 0)
( <= ( + Y0 77 ) 100)
( >= X1 0)
( <= ( + X1 7) Z)
( >= Y1 0)
( <= ( + Y1 32 ) 100)
( >= X2 0)
( <= ( + X2 23) Z)
( >= Y2 0)
( <= ( + Y2 60 ) 100)
( >= X3 0)
( <= ( + X3 70) Z)
( >= Y3 0)
( <= ( + Y3 67 ) 100)
( >= X4 0)
( <= ( + X4 87) Z)
( >= Y4 0)
( <= ( + Y4 17 ) 100)
( >= X5 0)
( <= ( + X5 4) Z)
( >= Y5 0)
( <= ( + Y5 14 ) 100)
( >= X6 0)
( <= ( + X6 73) Z)
( >= Y6 0)
( <= ( + Y6 2 ) 100)
( >= X7 0)
( <= ( + X7 67) Z)
( >= Y7 0)
( <= ( + Y7 6 ) 100)
( >= X8 0)
( <= ( + X8 26) Z)
( >= Y8 0)
( <= ( + Y8 97 ) 100)
) )
(minimize Z)
(check-sat)
